% File represents an instance of a Composite Structure problem to be solved by a CP framework
% Created on 2025-03-25 14:05:15.047
T = 60;
n = 36;
m = 60;
edges = [(2, 1),
(7, 8),
(13, 14),
(19, 20),
(25, 26),
(32, 31),
(2, 3),
(9, 8),
(14, 15),
(21, 20),
(26, 27),
(32, 33),
(4, 3),
(9, 10),
(16, 15),
(21, 22),
(27, 28),
(33, 34),
(5, 4),
(11, 10),
(16, 17),
(23, 22),
(29, 28),
(35, 34),
(6, 5),
(12, 11),
(18, 17),
(23, 24),
(30, 29),
(36, 35),
(7, 1),
(7, 13),
(13, 19),
(19, 25),
(25, 31),
(2, 8),
(8, 14),
(20, 14),
(26, 20),
(26, 32),
(9, 3),
(9, 15),
(21, 15),
(27, 21),
(33, 27),
(4, 10),
(10, 16),
(16, 22),
(28, 22),
(28, 34),
(5, 11),
(11, 17),
(23, 17),
(29, 23),
(29, 35),
(12, 6),
(18, 12),
(24, 18),
(30, 24),
(30, 36)];
counts = [|21, 19, 9, 2,
|21, 20, 10, 2,
|21, 12, 8, 2,
|21, 12, 10, 3,
|21, 12, 11, 3,
|22, 12, 11, 3,
|23, 22, 10, 5,
|21, 18, 9, 2,
|21, 18, 10, 2,
|21, 12, 10, 2,
|21, 12, 11, 2,
|22, 12, 11, 4,
|23, 22, 9, 5,
|21, 18, 8, 2,
|20, 12, 7, 2,
|21, 12, 9, 2,
|21, 12, 8, 2,
|22, 12, 12, 4,
|23, 22, 8, 5,
|21, 18, 8, 3,
|21, 18, 8, 4,
|21, 12, 8, 2,
|22, 15, 12, 4,
|22, 14, 12, 4,
|23, 22, 8, 4,
|23, 21, 8, 4,
|21, 19, 8, 4,
|21, 18, 8, 4,
|23, 18, 12, 4,
|23, 18, 14, 5,
|16, 21, 8, 2,
|22, 21, 8, 4,
|21, 21, 8, 4,
|19, 18, 4, 3,
|21, 18, 8, 3,
|22, 18, 14, 3|];
